NAME : kroD100-R-5-1-a.34246.tour
COMMENT : Length = 34246
COMMENT : Found by LKH-3 [Keld Helsgaun] Tue Jul 30 13:14:56 2024
TYPE : TOUR
DIMENSION : 100
TOUR_SECTION
1
50
11
17
70
42
23
66
27
13
79
73
71
44
53
62
51
95
56
21
82
86
78
31
61
74
7
75
67
36
29
22
49
98
97
94
81
46
76
80
72
57
99
33
85
18
6
3
64
63
91
77
43
4
93
60
35
37
19
100
30
2
48
92
55
87
26
10
9
5
83
40
59
25
20
47
28
12
14
68
45
65
96
16
54
39
15
69
84
41
88
24
34
38
52
8
58
89
90
32
-1
EOF
